(declare-const tmp Int)
(declare-const |phi_tmp:51| Int)
(declare-const |havoc:0:9| Int)
(declare-const |y':54| Int)
(declare-const |tmp':55| Int)
(declare-const |x':53| Int)
(declare-const |K:61| Int)
(assert (and (or (not (<= (- |K:61|) 0))
                   (= (+ (* 2 |x':53|) (- (* |K:61| |K:61|)) |K:61| -2) 0))
               (or (not (<= (- |K:61|) 0)) (= (+ |y':54| (- |K:61|)) 0))
               (or (and (= |K:61| 0) (= (+ (- |tmp':55|) tmp) 0)
                          (= (- |y':54|) 0) (= (+ (- |x':53|) 1) 0))
                     (and (<= (+ (- |K:61|) 1) 0) (<= (+ |y':54| -1000) 0)
                            (<= (+ |y':54| (- |x':53|)) 0)
                            (<= (+ (- |y':54|) 1) 0))) (<= (- |K:61|) 0)
               (< (- |x':53|) 0) (<= (- |y':54|) 0)
               (or (and (<= (+ (- |y':54|) 1000) 0)
                          (= (+ (- |phi_tmp:51|) |tmp':55|) 0))
                     (and (< (+ |y':54| -1000) 0) (= |havoc:0:9| 0)
                            (= (+ |havoc:0:9| (- |phi_tmp:51|)) 0)))
               (not (<= (+ |y':54| (- |x':53|)) 0))))
(check-sat)
